50
5
5
1
54 95
35 71
97 67
90 110
54 95
35 71
97 67
90 110
73 130
70 111
72 100
72 82
63 68
49 77
40 91
40 106
48 117
63 114
84 115
107 123
111 101
104 91
94 78
89 67
82 53
68 46
48 47
37 50
26 59
23 74
25 81
28 95
28 112
29 122
34 128
43 132
52 135
52 135
63 138
85 133
109 128
86 140
61 136
38 142
42 95
53 63
45 39
33 30
25 34
35 37
62 30
91 27
98 36
98 47
92 53
78 65
70 89
64 98
EOF